2025-10-18 23:50:06,316 - INFO - 📌 第一个 epoch：默认所有模块使用 checkpoint
2025-10-18 23:50:07,501 - INFO - Epoch 1 completed in 1.191669 seconds
2025-10-18 23:50:07,984 - INFO - torch.cuda.max_memory_reserved() : 7.45703125
2025-10-18 23:50:08,587 - INFO - 
[🔁 拟合反向传播时间模型]
2025-10-18 23:50:08,588 - INFO - 总反向传播时间: 0.595689s
2025-10-18 23:50:08,588 - INFO - 拟合模型: backward_total ≈ 2 × (A + B) + b
2025-10-18 23:50:08,588 - INFO - A = 0.971605, B = 0.018744, b = -0.394659s
2025-10-18 23:50:08,634 - INFO - Set parameter LicenseID to value 2706656
2025-10-18 23:50:08,658 - INFO - Set parameter LogToConsole to value 1
2025-10-18 23:50:08,658 - INFO - Set parameter LogFile to value ""
2025-10-18 23:50:08,658 - INFO - Set parameter Threads to value 12
2025-10-18 23:50:08,659 - INFO - Set parameter TimeLimit to value 3600
2025-10-18 23:50:08,659 - INFO - Set parameter OptimalityTol to value 0.0001
2025-10-18 23:50:08,659 - INFO - Set parameter IntFeasTol to value 1e-05
2025-10-18 23:50:08,659 - INFO - Set parameter StartNodeLimit to value 10000000
2025-10-18 23:50:08,714 - INFO - Set parameter TimeLimit to value 3600
2025-10-18 23:50:08,714 - INFO - 
2025-10-18 23:50:08,714 - INFO - 
2025-10-18 23:50:08,714 - INFO - Restarting solve
2025-10-18 23:50:08,714 - INFO - 
2025-10-18 23:50:08,714 - INFO - 
2025-10-18 23:50:08,716 - INFO - Gurobi Optimizer version 12.0.3 build v12.0.3rc0 (linux64 - "Ubuntu 20.04.6 LTS")
2025-10-18 23:50:08,716 - INFO - 
2025-10-18 23:50:08,716 - INFO - CPU model: Intel(R) Xeon(R) Platinum 8260 CPU @ 2.40GHz, instruction set [SSE2|AVX|AVX2|AVX512]
2025-10-18 23:50:08,716 - INFO - Thread count: 48 physical cores, 96 logical processors, using up to 12 threads
2025-10-18 23:50:08,716 - INFO - 
2025-10-18 23:50:08,716 - INFO - Non-default parameters:
2025-10-18 23:50:08,716 - INFO - TimeLimit  3600
2025-10-18 23:50:08,716 - INFO - OptimalityTol  0.0001
2025-10-18 23:50:08,716 - INFO - StartNodeLimit  10000000
2025-10-18 23:50:08,716 - INFO - Threads  12
2025-10-18 23:50:08,716 - INFO - 
2025-10-18 23:50:08,716 - INFO - Optimize a model with 5603 rows, 3584 columns and 15200 nonzeros
2025-10-18 23:50:08,716 - INFO - Model fingerprint: 0x1b59d139
2025-10-18 23:50:08,716 - INFO - Variable types: 1024 continuous, 2560 integer (2560 binary)
2025-10-18 23:50:08,716 - INFO - Coefficient statistics:
2025-10-18 23:50:08,716 - INFO -   Matrix range     [1e+00, 2e+15]
2025-10-18 23:50:08,716 - INFO -   Objective range  [5e+04, 2e+06]
2025-10-18 23:50:08,717 - INFO -   Bounds range     [1e+00, 2e+16]
2025-10-18 23:50:08,717 - INFO -   RHS range        [1e+00, 2e+16]
2025-10-18 23:50:08,717 - INFO - Warning: Model contains large matrix coefficient range
2025-10-18 23:50:08,717 - INFO - Warning: Model contains large rhs
2025-10-18 23:50:08,717 - INFO - Warning: Model contains large bounds
2025-10-18 23:50:08,717 - INFO -          Consider reformulating model or setting NumericFocus parameter
2025-10-18 23:50:08,717 - INFO -          to avoid numerical issues.
2025-10-18 23:50:08,730 - INFO - Presolve removed 4283 rows and 1964 columns
2025-10-18 23:50:08,730 - INFO - Presolve time: 0.01s
2025-10-18 23:50:08,730 - INFO - Presolved: 1320 rows, 1620 columns, 4514 nonzeros
2025-10-18 23:50:08,732 - INFO - Variable types: 0 continuous, 1620 integer (1095 binary)
2025-10-18 23:50:08,742 - INFO - 
2025-10-18 23:50:08,743 - INFO - Root relaxation: objective 2.628488e+07, 413 iterations, 0.00 seconds (0.00 work units)
2025-10-18 23:50:08,745 - INFO - 
2025-10-18 23:50:08,745 - INFO -     Nodes    |    Current Node    |     Objective Bounds      |     Work
2025-10-18 23:50:08,745 - INFO -  Expl Unexpl |  Obj  Depth IntInf | Incumbent    BestBd   Gap | It/Node Time
2025-10-18 23:50:08,745 - INFO - 
2025-10-18 23:50:08,745 - INFO -      0     0 2.6285e+07    0    9          - 2.6285e+07      -     -    0s
2025-10-18 23:50:08,772 - INFO - H    0     0                    3.942733e+07 2.6285e+07  33.3%     -    0s
2025-10-18 23:50:08,774 - INFO - *    0     0               0    2.628488e+07 2.6285e+07  0.00%     -    0s
2025-10-18 23:50:08,776 - INFO - 
2025-10-18 23:50:08,776 - INFO - Cutting planes:
2025-10-18 23:50:08,776 - INFO -   Cover: 9
2025-10-18 23:50:08,776 - INFO - 
2025-10-18 23:50:08,776 - INFO - Explored 1 nodes (422 simplex iterations) in 0.06 seconds (0.03 work units)
2025-10-18 23:50:08,776 - INFO - Thread count was 12 (of 96 available processors)
2025-10-18 23:50:08,776 - INFO - 
2025-10-18 23:50:08,776 - INFO - Solution count 2: 2.62849e+07 3.94273e+07 
2025-10-18 23:50:08,776 - INFO - 
2025-10-18 23:50:08,776 - INFO - Optimal solution found (tolerance 1.00e-04)
2025-10-18 23:50:08,776 - INFO - Best objective 2.628488400000e+07, best bound 2.628488400000e+07, gap 0.0000%
2025-10-18 23:50:08,787 - INFO - 规划前的显存GB：18.0
2025-10-18 23:50:08,787 - INFO - 规划后的显存GB：16.138723373413086
2025-10-18 23:50:08,787 - INFO - ✅ 最优策略：[1, 1, 1, 1, 1, 1, 1, 1, 1, 1, 1, 1, 1, 1, 1, 1]
2025-10-18 23:50:08,787 - INFO - 📌 checkpoint 的欧氏长度:, []
2025-10-18 23:50:08,787 - INFO - 📌 checkpoint 的余弦长度:, []
2025-10-18 23:50:08,787 - INFO - 💾 最终显存峰值：%.2f MB % 14191.99333190918
2025-10-18 23:50:08,787 - INFO - Epoch 2 completed in 0.802688 seconds
2025-10-18 23:50:08,788 - INFO - torch.cuda.max_memory_reserved() : 7.45703125
2025-10-18 23:50:09,187 - INFO - Epoch 3 completed in 0.398722 seconds
2025-10-18 23:50:09,187 - INFO - 
====================== [第1个 Epoch 收集统计数据] ======================
2025-10-18 23:50:09,187 - INFO - 
🔍 EUCLIDEAN modules:
2025-10-18 23:50:09,187 - INFO - [Shapelet 119] forward_avg=0.017673s over 2 calls | peak=574.44MB | final=0.00MB
2025-10-18 23:50:09,187 - INFO - [Shapelet 238] forward_avg=0.010416s over 2 calls | peak=1015.43MB | final=0.00MB
2025-10-18 23:50:09,187 - INFO - [Shapelet 358] forward_avg=0.016372s over 2 calls | peak=1333.82MB | final=0.00MB
2025-10-18 23:50:09,188 - INFO - [Shapelet 478] forward_avg=0.019872s over 2 calls | peak=1527.39MB | final=0.00MB
2025-10-18 23:50:09,188 - INFO - [Shapelet 597] forward_avg=0.019598s over 2 calls | peak=1593.80MB | final=0.00MB
2025-10-18 23:50:09,188 - INFO - [Shapelet 717] forward_avg=0.016930s over 2 calls | peak=1532.89MB | final=0.00MB
2025-10-18 23:50:09,188 - INFO - [Shapelet 837] forward_avg=0.014184s over 2 calls | peak=1346.26MB | final=0.00MB
2025-10-18 23:50:09,188 - INFO - [Shapelet 957] forward_avg=0.011693s over 2 calls | peak=1033.37MB | final=0.00MB
2025-10-18 23:50:09,188 - INFO - 
🔍 COSINE modules:
2025-10-18 23:50:09,188 - INFO - [Shapelet 119] forward_avg=0.001899s over 2 calls | peak=377.76MB | final=0.00MB
2025-10-18 23:50:09,188 - INFO - [Shapelet 238] forward_avg=0.003013s over 2 calls | peak=670.78MB | final=0.00MB
2025-10-18 23:50:09,188 - INFO - [Shapelet 358] forward_avg=0.004129s over 2 calls | peak=882.25MB | final=0.00MB
2025-10-18 23:50:09,189 - INFO - [Shapelet 478] forward_avg=0.006917s over 2 calls | peak=1010.33MB | final=0.00MB
2025-10-18 23:50:09,189 - INFO - [Shapelet 597] forward_avg=0.007940s over 2 calls | peak=1052.88MB | final=0.00MB
2025-10-18 23:50:09,189 - INFO - [Shapelet 717] forward_avg=0.004354s over 2 calls | peak=1012.70MB | final=0.00MB
2025-10-18 23:50:09,189 - INFO - [Shapelet 837] forward_avg=0.003888s over 2 calls | peak=885.75MB | final=0.00MB
2025-10-18 23:50:09,189 - INFO - [Shapelet 957] forward_avg=0.003055s over 2 calls | peak=676.20MB | final=0.00MB
2025-10-18 23:50:09,189 - INFO - 
🔍 CROSS modules:
2025-10-18 23:50:09,189 - INFO - [Shapelet 119] forward_avg=0.000579s over 2 calls
2025-10-18 23:50:09,189 - INFO - [Shapelet 238] forward_avg=0.000467s over 2 calls
2025-10-18 23:50:09,189 - INFO - [Shapelet 358] forward_avg=0.000596s over 2 calls
2025-10-18 23:50:09,189 - INFO - [Shapelet 478] forward_avg=0.000723s over 2 calls
2025-10-18 23:50:09,190 - INFO - [Shapelet 597] forward_avg=0.000612s over 2 calls
2025-10-18 23:50:09,190 - INFO - [Shapelet 717] forward_avg=0.000550s over 2 calls
2025-10-18 23:50:09,190 - INFO - [Shapelet 837] forward_avg=0.000613s over 2 calls
2025-10-18 23:50:09,190 - INFO - [Shapelet 957] forward_avg=0.000546s over 2 calls
2025-10-18 23:50:09,190 - INFO - 
💾 模型第一次反向传播阶段的显存峰值（所有模块中的最大值）: 9237.93 MB
2025-10-18 23:50:09,190 - INFO - 
💾 模型初始显存: 9.69 MB
2025-10-18 23:50:09,190 - INFO - =======================================================================

2025-10-18 23:50:09,191 - INFO - torch.cuda.max_memory_reserved() : 13.96484375
2025-10-18 23:50:09,606 - INFO - Epoch 4 completed in 0.414034 seconds
2025-10-18 23:50:09,607 - INFO - torch.cuda.max_memory_reserved() : 14.728515625
2025-10-18 23:50:10,036 - INFO - Epoch 5 completed in 0.427812 seconds
2025-10-18 23:50:10,036 - INFO - torch.cuda.max_memory_reserved() : 14.73046875
2025-10-18 23:50:10,466 - INFO - Epoch 6 completed in 0.429719 seconds
2025-10-18 23:50:10,467 - INFO - torch.cuda.max_memory_reserved() : 14.73046875
2025-10-18 23:50:10,844 - INFO - Epoch 7 completed in 0.376738 seconds
2025-10-18 23:50:10,844 - INFO - torch.cuda.max_memory_reserved() : 14.73046875
2025-10-18 23:50:11,268 - INFO - Epoch 8 completed in 0.423473 seconds
2025-10-18 23:50:11,269 - INFO - torch.cuda.max_memory_reserved() : 14.73046875
2025-10-18 23:50:11,700 - INFO - Epoch 9 completed in 0.430423 seconds
2025-10-18 23:50:11,701 - INFO - torch.cuda.max_memory_reserved() : 14.73046875
2025-10-18 23:50:12,110 - INFO - Epoch 10 completed in 0.407373 seconds
2025-10-18 23:50:12,557 - INFO - torch.cuda.max_memory_reserved() : 14.73046875
2025-10-18 23:50:12,558 - INFO - !!!采用策略后的几个epoch 平均时间:0.41353678703308105
2025-10-18 23:50:12,558 - INFO - 



